\Problem name: noname                                                           
\FICO Xpress v9.4.2, Community, written 19:22:55, Jul 2, 2025

Minimize
__OBJ___: 11.30790172303263 x(0,0) + 10.197377745852434 x(0,1)
 + 3.1841980128848135 x(0,2) + 9.254121022040612 x(0,3)
 + 8.017085322534747 x(0,4) + 8.278477186169914 x(0,5)
 + 7.857475951198222 x(0,6) + 6.947617575397667 x(0,7)
 + 1.2528807526240646 x(0,8) + 6.152843412872156 x(0,9)
 + 2.0148229803871023 x(0,10) + 7.3072793054096055 x(1,0)
 + 5.7682342149815415 x(1,1) + 8.311403839195398 x(1,2)
 + 3.760684968171352 x(1,3) + 0.6846593198661891 x(1,4)
 + 10.582988358449226 x(1,5) + 6.524582949554744 x(1,6)
 + 1.796020840208281 x(1,7) + 7.657612191017479 x(1,8)
 + 7.577243538177346 x(1,9) + 6.714611006637187 x(1,10)
 + 8.795805125019147 x(2,0) + 7.898728124728279 x(2,1)
 + 0.35802361857422155 x(2,2) + 7.408290785667883 x(2,3)
 + 7.463906443936558 x(2,4) + 5.3947268211232196 x(2,5)
 + 5.228632066306758 x(2,6) + 6.60061037038779 x(2,7)
 + 3.3952633310308102 x(2,8) + 3.2773825482798347 x(2,9)
 + 2.5138244977003295 x(2,10) + 3.6203273129093914 x(3,0)
 + 2.9694495317798113 x(3,1) + 5.165401647362326 x(3,2)
 + 3.517817823568675 x(3,3) + 6.263025743348787 x(3,4)
 + 4.3866397309258 x(3,5) + 0.08668314996744685 x(3,6)
 + 6.159277569464113 x(3,7) + 7.635854309088213 x(3,8)
 + 2.2567873246550794 x(3,9) + 6.262256525923321 x(3,10)
 + 9.418981466916641 x(4,0) + 8.242986000439123 x(4,1)
 + 2.4728101268643283 x(4,2) + 7.240214712404337 x(4,3)
 + 6.205458871830875 x(4,4) + 7.326529983661651 x(4,5)
 + 6.079693595184563 x(4,6) + 5.190627887362015 x(4,7)
 + 1.632599141294021 x(4,8) + 4.696339307739532 x(4,9)
 + 0.3974304287116413 x(4,10) + 8.860816075246248 x(5,0)
 + 7.846170468523318 x(5,1) + 1.1532844510118738 x(5,2)
 + 7.157837412277717 x(5,3) + 6.856333667995929 x(5,4)
 + 6.049197064739295 x(5,5) + 5.355639511660137 x(5,6)
 + 5.944862775466522 x(5,7) + 2.738707256945635 x(5,8)
 + 3.6385271264094445 x(5,9) + 1.7337249992418684 x(5,10)
 + 4.755525008511443 x(6,0) + 3.2437837986935767 x(6,1)
 + 8.01014038378514 x(6,2) + 1.2877838392838432 x(6,3)
 + 2.854764622408951 x(6,4) + 8.990751102967591 x(6,5)
 + 4.676257987774292 x(6,6) + 3.580678001238368 x(6,7)
 + 8.524784582097096 x(6,8) + 6.3259223047595885 x(6,9)
 + 7.303985066708168 x(6,10) + 3.735798988785771 x(7,0)
 + 4.016398863489042 x(7,1) + 6.154221755597109 x(7,2)
 + 5.3324296477901125 x(7,3) + 8.46568694788642 x(7,4)
 + 3.0955313951052954 x(7,5) + 2.1450478455407342 x(7,6)
 + 8.389130106014782 x(7,7) + 9.256367278048213 x(7,8)
 + 3.0227246508729366 x(7,9) + 7.94336119406633 x(7,10)
 + 2.563186685729702 x(8,0) + 2.2555303089305085 x(8,1)
 + 6.254953694131597 x(8,2) + 3.431442067886348 x(8,3)
 + 6.747555015519237 x(8,4) + 4.717080503477769 x(8,5)
 + 1.0669047683970032 x(8,6) + 6.809833986741128 x(8,7)
 + 8.745964829813543 x(8,8) + 3.228909187215946 x(8,9)
 + 7.368268523089616 x(8,10)

Subject To
R1: x(0,0) + x(0,1) + x(0,2) + x(0,3) + x(0,4) + x(0,5) + x(0,6) + x(0,7)
          + x(0,8) + x(0,9) + x(0,10) = 1 
R2: x(1,0) + x(1,1) + x(1,2) + x(1,3) + x(1,4) + x(1,5) + x(1,6) + x(1,7)
          + x(1,8) + x(1,9) + x(1,10) = 1 
R3: x(2,0) + x(2,1) + x(2,2) + x(2,3) + x(2,4) + x(2,5) + x(2,6) + x(2,7)
          + x(2,8) + x(2,9) + x(2,10) = 1 
R4: x(3,0) + x(3,1) + x(3,2) + x(3,3) + x(3,4) + x(3,5) + x(3,6) + x(3,7)
          + x(3,8) + x(3,9) + x(3,10) = 1 
R5: x(4,0) + x(4,1) + x(4,2) + x(4,3) + x(4,4) + x(4,5) + x(4,6) + x(4,7)
          + x(4,8) + x(4,9) + x(4,10) = 1 
R6: x(5,0) + x(5,1) + x(5,2) + x(5,3) + x(5,4) + x(5,5) + x(5,6) + x(5,7)
          + x(5,8) + x(5,9) + x(5,10) = 1 
R7: x(6,0) + x(6,1) + x(6,2) + x(6,3) + x(6,4) + x(6,5) + x(6,6) + x(6,7)
          + x(6,8) + x(6,9) + x(6,10) = 1 
R8: x(7,0) + x(7,1) + x(7,2) + x(7,3) + x(7,4) + x(7,5) + x(7,6) + x(7,7)
          + x(7,8) + x(7,9) + x(7,10) = 1 
R9: x(8,0) + x(8,1) + x(8,2) + x(8,3) + x(8,4) + x(8,5) + x(8,6) + x(8,7)
          + x(8,8) + x(8,9) + x(8,10) = 1 
R10: x(0) + x(1) + x(2) + x(3) + x(4) + x(5) + x(6) + x(7) + x(8) + x(9)
          + x(10) = 4 
R11: x(0,0) + x(1,0) + x(2,0) + x(3,0) + x(4,0) + x(5,0) + x(6,0) + x(7,0)
          + x(8,0) - 9 x(0) <= 0 
R12: x(0,1) + x(1,1) + x(2,1) + x(3,1) + x(4,1) + x(5,1) + x(6,1) + x(7,1)
          + x(8,1) - 9 x(1) <= 0 
R13: x(0,2) + x(1,2) + x(2,2) + x(3,2) + x(4,2) + x(5,2) + x(6,2) + x(7,2)
          + x(8,2) - 9 x(2) <= 0 
R14: x(0,3) + x(1,3) + x(2,3) + x(3,3) + x(4,3) + x(5,3) + x(6,3) + x(7,3)
          + x(8,3) - 9 x(3) <= 0 
R15: x(0,4) + x(1,4) + x(2,4) + x(3,4) + x(4,4) + x(5,4) + x(6,4) + x(7,4)
          + x(8,4) - 9 x(4) <= 0 
R16: x(0,5) + x(1,5) + x(2,5) + x(3,5) + x(4,5) + x(5,5) + x(6,5) + x(7,5)
          + x(8,5) - 9 x(5) <= 0 
R17: x(0,6) + x(1,6) + x(2,6) + x(3,6) + x(4,6) + x(5,6) + x(6,6) + x(7,6)
          + x(8,6) - 9 x(6) <= 0 
R18: x(0,7) + x(1,7) + x(2,7) + x(3,7) + x(4,7) + x(5,7) + x(6,7) + x(7,7)
          + x(8,7) - 9 x(7) <= 0 
R19: x(0,8) + x(1,8) + x(2,8) + x(3,8) + x(4,8) + x(5,8) + x(6,8) + x(7,8)
          + x(8,8) - 9 x(8) <= 0 
R20: x(0,9) + x(1,9) + x(2,9) + x(3,9) + x(4,9) + x(5,9) + x(6,9) + x(7,9)
          + x(8,9) - 9 x(9) <= 0 
R21: x(0,10) + x(1,10) + x(2,10) + x(3,10) + x(4,10) + x(5,10) + x(6,10)
          + x(7,10) + x(8,10) - 9 x(10) <= 0 

Bounds

Binaries
x(0,0) x(0,1) x(0,2) x(0,3) x(0,4) x(0,5) x(0,6) x(0,7) x(0,8) x(0,9) x(0,10) 
x(1,0) x(1,1) x(1,2) x(1,3) x(1,4) x(1,5) x(1,6) x(1,7) x(1,8) x(1,9) x(1,10) 
x(2,0) x(2,1) x(2,2) x(2,3) x(2,4) x(2,5) x(2,6) x(2,7) x(2,8) x(2,9) x(2,10) 
x(3,0) x(3,1) x(3,2) x(3,3) x(3,4) x(3,5) x(3,6) x(3,7) x(3,8) x(3,9) x(3,10) 
x(4,0) x(4,1) x(4,2) x(4,3) x(4,4) x(4,5) x(4,6) x(4,7) x(4,8) x(4,9) x(4,10) 
x(5,0) x(5,1) x(5,2) x(5,3) x(5,4) x(5,5) x(5,6) x(5,7) x(5,8) x(5,9) x(5,10) 
x(6,0) x(6,1) x(6,2) x(6,3) x(6,4) x(6,5) x(6,6) x(6,7) x(6,8) x(6,9) x(6,10) 
x(7,0) x(7,1) x(7,2) x(7,3) x(7,4) x(7,5) x(7,6) x(7,7) x(7,8) x(7,9) x(7,10) 
x(8,0) x(8,1) x(8,2) x(8,3) x(8,4) x(8,5) x(8,6) x(8,7) x(8,8) x(8,9) x(8,10) 
x(0) x(1) x(2) x(3) x(4) x(5) x(6) x(7) x(8) x(9) x(10) 

End
